,0,1
0,[ 1. -1. -1.  1.  1.  1.  1. -1. -1. -1.  1.  1. -1.  1. -1.],44.0
1,[ 1. -1.  1. -1. -1.  1.  1.  1. -1. -1.  1. -1. -1. -1.  1.],44.0
2,[ 1. -1.  1.  1. -1.  1.  1. -1.  1.  1.  1. -1. -1. -1. -1.],46.0
3,[ 1. -1. -1.  1.  1. -1.  1. -1. -1.  1. -1. -1. -1.  1.  1.],42.0
4,[-1.  1. -1.  1. -1. -1. -1.  1. -1. -1. -1. -1.  1.  1.  1.],44.0
5,[ 1.  1. -1. -1.  1.  1.  1.  1. -1. -1. -1.  1. -1. -1. -1.],48.0
6,[ 1. -1.  1. -1. -1.  1. -1.  1. -1.  1.  1.  1. -1. -1.  1.],47.0
7,[ 1.  1.  1.  1. -1.  1. -1.  1.  1. -1.  1. -1.  1. -1. -1.],43.0
8,[-1.  1. -1.  1.  1. -1.  1. -1. -1. -1. -1.  1.  1. -1.  1.],49.0
9,[ 1.  1. -1. -1.  1. -1.  1.  1.  1. -1. -1. -1.  1.  1. -1.],50.0
10,[ 1. -1.  1. -1.  1.  1.  1.  1. -1. -1. -1. -1. -1.  1.  1.],48.0
11,[ 1.  1. -1.  1. -1.  1.  1. -1. -1.  1.  1.  1.  1.  1. -1.],33.0
12,[ 1. -1.  1.  1. -1. -1.  1. -1. -1.  1.  1. -1. -1.  1.  1.],43.0
13,[-1. -1.  1. -1.  1.  1. -1. -1.  1.  1. -1.  1.  1.  1. -1.],43.0
14,[-1.  1. -1.  1.  1. -1.  1. -1. -1.  1. -1.  1. -1. -1.  1.],44.0
15,[ 1. -1. -1. -1.  1. -1.  1. -1. -1. -1.  1.  1.  1. -1.  1.],40.0
16,[ 1. -1. -1. -1.  1. -1. -1. -1. -1.  1.  1.  1. -1.  1.  1.],48.0
17,[ 1. -1. -1.  1. -1. -1. -1. -1.  1. -1.  1.  1.  1. -1.  1.],47.0
18,[ 1.  1. -1.  1. -1.  1. -1.  1.  1.  1. -1. -1.  1.  1. -1.],47.0
19,[-1. -1.  1.  1.  1.  1.  1.  1. -1.  1.  1. -1.  1. -1.  1.],39.0
20,[ 1.  1. -1. -1. -1.  1.  1.  1. -1. -1. -1.  1.  1. -1.  1.],43.0
21,[-1. -1.  1. -1.  1. -1. -1. -1.  1.  1. -1.  1.  1.  1.  1.],47.0
22,[ 1. -1.  1.  1. -1.  1. -1. -1.  1.  1. -1.  1.  1. -1.  1.],45.0
23,[-1.  1. -1.  1. -1.  1. -1.  1. -1.  1.  1. -1. -1. -1. -1.],41.0
24,[ 1. -1. -1. -1.  1.  1. -1.  1.  1. -1. -1. -1.  1. -1.  1.],44.0
25,[ 1. -1. -1. -1. -1.  1. -1.  1.  1. -1. -1.  1. -1. -1.  1.],40.0
26,[ 1.  1. -1.  1. -1. -1. -1.  1.  1. -1.  1. -1.  1. -1. -1.],46.0
27,[-1. -1.  1.  1. -1. -1. -1. -1. -1.  1.  1.  1.  1.  1. -1.],48.0
28,[ 1.  1. -1. -1. -1. -1. -1.  1.  1.  1.  1. -1.  1. -1. -1.],46.0
29,[-1. -1. -1. -1. -1.  1.  1. -1.  1.  1. -1.  1.  1.  1. -1.],46.0
30,[-1.  1. -1. -1.  1. -1. -1.  1.  1.  1. -1. -1.  1.  1. -1.],44.0
31,[-1. -1.  1. -1. -1.  1.  1.  1. -1.  1. -1. -1. -1.  1.  1.],43.0
32,[-1.  1. -1.  1. -1. -1.  1. -1.  1.  1. -1.  1.  1. -1. -1.],47.0
33,[ 1. -1. -1.  1.  1.  1. -1.  1.  1.  1. -1.  1. -1. -1.  1.],46.0
34,[-1. -1. -1.  1.  1. -1.  1.  1.  1. -1.  1. -1. -1.  1. -1.],42.0
35,[ 1.  1. -1. -1. -1.  1.  1. -1. -1. -1. -1. -1.  1.  1.  1.],50.0
36,[ 1. -1. -1. -1. -1.  1. -1.  1.  1. -1.  1. -1.  1. -1.  1.],43.0
37,[ 1.  1.  1. -1. -1. -1.  1. -1.  1. -1.  1.  1.  1. -1.  1.],37.0
38,[-1.  1.  1. -1. -1.  1. -1.  1. -1.  1. -1.  1. -1.  1. -1.],44.0
39,[-1. -1. -1. -1. -1. -1. -1.  1.  1.  1. -1.  1.  1. -1.  1.],46.0
40,[ 1.  1. -1.  1. -1. -1. -1. -1. -1.  1. -1. -1.  1. -1.  1.],42.0
41,[ 1. -1.  1. -1. -1. -1.  1.  1. -1.  1. -1. -1.  1. -1.  1.],46.0
42,[-1. -1. -1.  1. -1.  1. -1.  1. -1. -1. -1. -1.  1.  1.  1.],45.0
43,[ 1. -1.  1. -1.  1.  1.  1.  1. -1.  1.  1. -1.  1. -1.  1.],38.0
44,[-1.  1.  1. -1.  1.  1. -1.  1.  1.  1. -1.  1. -1.  1. -1.],47.0
45,[-1.  1.  1.  1.  1. -1. -1.  1.  1. -1. -1.  1. -1. -1.  1.],50.0
46,[ 1. -1.  1.  1. -1.  1.  1.  1.  1. -1. -1.  1.  1. -1. -1.],47.0
47,[-1. -1. -1. -1.  1. -1.  1.  1.  1.  1.  1. -1. -1.  1. -1.],46.0
48,[ 1.  1.  1. -1.  1. -1. -1. -1. -1. -1. -1.  1. -1. -1.  1.],40.0
49,[ 1.  1. -1. -1. -1.  1. -1. -1.  1.  1. -1. -1.  1.  1. -1.],47.0
50,[ 1.  1. -1.  1. -1.  1.  1.  1. -1. -1. -1.  1. -1. -1. -1.],50.0
51,[ 1.  1.  1. -1. -1. -1. -1.  1. -1.  1. -1.  1. -1. -1.  1.],49.0
52,[-1.  1.  1.  1. -1.  1.  1. -1.  1.  1. -1. -1. -1. -1.  1.],45.0
53,[ 1.  1. -1. -1. -1. -1.  1.  1. -1.  1. -1. -1.  1.  1.  1.],45.0
54,[ 1.  1.  1.  1. -1. -1. -1. -1.  1.  1. -1. -1.  1.  1.  1.],43.0
55,[-1. -1. -1. -1.  1. -1. -1. -1.  1.  1.  1. -1.  1. -1.  1.],45.0
56,[-1.  1. -1.  1.  1. -1. -1. -1.  1. -1. -1. -1. -1.  1.  1.],42.0
57,[-1.  1.  1. -1. -1.  1. -1. -1. -1.  1.  1.  1.  1.  1. -1.],51.0
58,[ 1.  1. -1. -1. -1.  1.  1.  1.  1.  1.  1. -1. -1. -1. -1.],43.0
59,[-1. -1.  1.  1.  1.  1.  1. -1.  1. -1. -1.  1. -1. -1. -1.],43.0
60,[-1.  1.  1. -1.  1.  1.  1.  1. -1. -1.  1. -1.  1.  1. -1.],41.0
61,[ 1. -1. -1.  1.  1. -1. -1. -1. -1.  1.  1.  1. -1.  1. -1.],47.0
62,[-1. -1. -1. -1. -1. -1.  1.  1.  1. -1.  1.  1. -1.  1.  1.],43.0
63,[-1. -1. -1. -1. -1.  1.  1. -1. -1. -1.  1. -1. -1.  1.  1.],43.0
64,[ 1. -1.  1. -1.  1.  1. -1.  1.  1.  1. -1.  1.  1.  1. -1.],42.0
65,[-1.  1.  1.  1. -1. -1. -1. -1. -1.  1.  1.  1. -1. -1.  1.],52.0
66,[-1. -1.  1. -1. -1. -1. -1.  1.  1.  1. -1.  1. -1.  1.  1.],45.0
67,[ 1. -1. -1.  1.  1.  1.  1. -1.  1. -1.  1. -1.  1. -1. -1.],42.0
68,[-1.  1. -1.  1. -1. -1. -1. -1. -1.  1.  1.  1. -1. -1.  1.],45.0
69,[-1.  1.  1. -1.  1.  1.  1. -1.  1.  1.  1. -1. -1.  1. -1.],46.0
70,[ 1.  1.  1. -1.  1.  1. -1.  1. -1. -1. -1.  1.  1.  1.  1.],43.0
71,[-1.  1. -1. -1. -1.  1.  1.  1.  1. -1. -1. -1. -1.  1. -1.],44.0
72,[-1. -1. -1. -1. -1.  1.  1.  1.  1.  1. -1.  1. -1. -1.  1.],49.0
73,[-1. -1. -1. -1.  1. -1.  1. -1. -1. -1.  1.  1.  1.  1.  1.],46.0
74,[-1. -1. -1. -1. -1. -1.  1.  1. -1.  1.  1. -1. -1. -1.  1.],39.0
75,[ 1. -1.  1.  1. -1.  1. -1. -1.  1. -1.  1. -1.  1.  1. -1.],45.0
76,[-1. -1. -1.  1.  1. -1. -1.  1.  1.  1.  1. -1. -1.  1.  1.],43.0
77,[-1. -1.  1.  1.  1.  1.  1.  1.  1. -1. -1. -1. -1.  1. -1.],47.0
78,[-1. -1. -1.  1. -1.  1.  1. -1.  1. -1. -1. -1.  1. -1.  1.],45.0
79,[-1.  1.  1. -1.  1. -1. -1. -1. -1.  1.  1.  1. -1.  1. -1.],45.0
80,[ 1.  1. -1. -1.  1. -1.  1. -1. -1. -1. -1.  1.  1. -1.  1.],46.0
81,[ 1.  1.  1. -1. -1.  1.  1.  1. -1. -1. -1.  1.  1.  1. -1.],40.0
82,[ 1. -1. -1.  1.  1.  1.  1. -1. -1. -1. -1. -1. -1.  1.  1.],46.0
83,[-1. -1. -1.  1.  1.  1.  1. -1.  1. -1.  1.  1.  1. -1.  1.],43.0
84,[ 1. -1. -1. -1. -1.  1.  1. -1. -1.  1.  1. -1.  1.  1. -1.],47.0
85,[ 1.  1. -1.  1.  1. -1.  1.  1. -1. -1. -1. -1.  1. -1. -1.],47.0
86,[-1. -1.  1. -1. -1. -1.  1. -1.  1.  1. -1. -1. -1. -1.  1.],41.0
87,[ 1.  1.  1. -1. -1.  1. -1. -1. -1. -1.  1.  1. -1.  1. -1.],46.0
88,[ 1.  1. -1. -1. -1.  1.  1.  1. -1. -1.  1. -1.  1.  1.  1.],41.0
89,[-1.  1.  1. -1.  1.  1.  1. -1. -1.  1.  1. -1.  1. -1. -1.],44.0
90,[ 1.  1.  1. -1. -1. -1.  1. -1.  1.  1.  1.  1. -1. -1.  1.],45.0
91,[ 1.  1. -1. -1. -1.  1. -1.  1.  1.  1. -1.  1. -1. -1. -1.],38.0
92,[-1. -1. -1.  1.  1. -1.  1.  1. -1. -1. -1.  1.  1. -1. -1.],44.0
93,[-1.  1.  1.  1.  1. -1.  1. -1.  1.  1. -1. -1. -1.  1. -1.],48.0
94,[ 1. -1.  1. -1.  1. -1. -1.  1.  1. -1. -1. -1.  1.  1.  1.],45.0
95,[ 1.  1. -1.  1.  1. -1. -1. -1.  1.  1.  1. -1.  1.  1. -1.],44.0
96,[-1.  1.  1. -1. -1.  1.  1.  1.  1.  1. -1. -1.  1.  1. -1.],46.0
97,[-1. -1.  1.  1. -1. -1.  1.  1.  1.  1. -1. -1.  1.  1. -1.],51.0
98,[ 1.  1. -1.  1.  1. -1. -1. -1. -1. -1.  1.  1.  1. -1. -1.],44.0
99,[ 1. -1. -1.  1.  1.  1. -1. -1. -1.  1.  1.  1.  1.  1. -1.],44.0
